p tw 77 616
1 20
1 33
1 37
1 39
1 40
1 41
1 43
1 51
1 52
1 54
1 55
1 61
1 62
1 67
1 69
1 75
2 18
2 19
2 31
2 32
2 33
2 34
2 43
2 44
2 65
2 66
2 69
2 71
2 72
2 73
2 74
2 75
13 21
13 30
13 31
13 38
13 39
13 40
13 44
13 50
13 52
13 53
13 59
13 62
13 63
13 66
13 70
13 73
24 19
24 21
24 30
24 32
24 34
24 37
24 38
24 41
24 49
24 51
24 53
24 56
24 58
24 60
24 61
24 74
35 12
35 15
35 16
35 29
35 36
35 38
35 41
35 43
35 44
35 47
35 52
35 55
35 56
35 63
35 72
35 74
46 15
46 17
46 29
46 32
46 33
46 38
46 39
46 42
46 45
46 48
46 49
46 55
46 59
46 61
46 66
46 71
57 9
57 11
57 17
57 31
57 34
57 36
57 39
57 41
57 42
57 47
57 49
57 53
57 54
57 63
57 65
57 69
68 8
68 14
68 16
68 18
68 32
68 36
68 37
68 40
68 42
68 44
68 48
68 53
68 55
68 60
68 69
68 70
76 11
76 14
76 21
76 28
76 29
76 34
76 37
76 39
76 44
76 47
76 48
76 50
76 56
76 67
76 71
76 75
77 9
77 14
77 15
77 20
77 28
77 30
77 32
77 36
77 39
77 43
77 45
77 51
77 56
77 65
77 70
77 73
3 8
3 10
3 11
3 18
3 20
3 29
3 30
3 31
3 33
3 36
3 37
3 45
3 49
3 50
3 52
3 74
4 8
4 9
4 16
4 17
4 20
4 21
4 28
4 29
4 31
4 32
4 40
4 41
4 58
4 59
4 72
4 75
5 9
5 10
5 12
5 14
5 18
5 29
5 30
5 34
5 40
5 42
5 43
5 58
5 61
5 63
5 66
5 67
6 10
6 16
6 19
6 28
6 31
6 37
6 38
6 42
6 43
6 45
6 47
6 54
6 58
6 62
6 70
6 71
7 8
7 11
7 12
7 15
7 19
7 28
7 30
7 33
7 41
7 42
7 44
7 59
7 60
7 62
7 65
7 67
8 25
8 27
8 34
8 38
8 39
8 43
8 54
8 56
8 61
8 63
8 71
8 73
9 25
9 26
9 33
9 37
9 38
9 44
9 50
9 55
9 60
9 62
9 71
9 74
10 23
10 25
10 32
10 39
10 41
10 44
10 53
10 55
10 56
10 59
10 64
10 65
10 75
11 23
11 26
11 32
11 38
11 40
11 43
11 51
11 55
11 58
11 66
11 70
11 72
12 20
12 21
12 26
12 27
12 31
12 32
12 37
12 39
12 49
12 64
12 69
12 70
12 71
14 19
14 23
14 27
14 31
14 33
14 38
14 41
14 49
14 52
14 54
14 59
14 72
15 18
15 23
15 25
15 31
15 34
15 37
15 40
15 50
15 53
15 54
15 58
15 75
16 23
16 26
16 30
16 33
16 34
16 39
16 49
16 50
16 51
16 65
16 66
16 67
17 18
17 19
17 23
17 27
17 30
17 37
17 43
17 44
17 52
17 56
17 64
17 67
17 70
18 21
18 22
18 26
18 28
18 38
18 39
18 41
18 47
18 51
18 62
19 20
19 25
19 26
19 29
19 36
19 39
19 40
19 50
19 55
19 63
20 22
20 23
20 34
20 38
20 42
20 44
20 47
20 48
20 53
20 66
21 23
21 25
21 33
21 36
21 42
21 43
21 45
21 54
21 55
21 65
22 49
22 50
22 54
22 55
22 56
22 58
22 59
22 60
22 63
22 65
22 67
22 70
22 71
22 72
23 60
23 61
23 62
23 63
23 69
23 71
23 73
23 74
25 47
25 48
25 49
25 51
25 52
25 66
25 67
25 69
25 70
25 72
26 45
26 48
26 52
26 53
26 54
26 56
26 59
26 61
26 73
26 75
27 45
27 47
27 50
27 51
27 53
27 55
27 58
27 62
27 65
27 66
27 74
27 75
28 49
28 52
28 53
28 55
28 61
28 63
28 64
28 66
28 69
28 74
29 51
29 53
29 54
29 60
29 62
29 65
29 69
29 70
29 73
30 47
30 48
30 54
30 55
30 69
30 71
30 72
30 75
31 48
31 51
31 55
31 56
31 60
31 61
31 67
32 47
32 50
32 52
32 54
32 62
32 63
32 67
33 47
33 53
33 56
33 58
33 63
33 64
33 70
34 45
34 52
34 55
34 59
34 62
34 64
34 70
36 58
36 59
36 61
36 62
36 64
36 66
36 67
36 71
36 75
37 59
37 63
37 65
37 66
37 72
37 73
38 64
38 65
38 67
38 69
38 75
39 58
39 60
39 72
39 74
40 45
40 47
40 49
40 56
40 64
40 65
40 71
40 74
41 45
41 48
41 50
41 66
41 70
41 71
41 73
42 50
42 51
42 52
42 56
42 72
42 73
42 74
42 75
43 48
43 49
43 50
43 53
43 59
43 60
44 45
44 49
44 51
44 54
44 58
44 61
45 60
45 63
45 67
45 69
45 72
47 59
47 60
47 61
47 73
48 58
48 62
48 63
48 64
48 65
48 74
49 62
49 73
49 75
50 61
50 64
50 69
51 59
51 63
51 64
51 71
52 58
52 60
52 65
52 71
53 67
53 71
53 72
54 64
54 66
54 74
55 73
56 62
56 66
56 69
58 69
58 73
59 69
59 74
60 64
60 66
60 75
61 65
61 70
61 72
62 72
63 75
64 72
64 73
67 73
67 74
70 74
70 75
